myproject/instances/20nodes/rnd8_20.tsp
NAME : rnd8_20.tsp
TYPE : TSP
DIMENSION : 20
EDGE_WEIGHT_TYPE : EUC_2D
NODE_COORD_SECTION
1 601 114
2 993 65
3 346 986
4 32 818
5 214 746
6 91 873
7 362 280
8 918 457
9 18 910
10 795 80
11 832 142
12 751 336
13 675 304
14 216 377
15 837 953
16 742 730
17 726 986
18 738 346
19 355 982
20 800 237
