myproject/instances/20nodes/rnd8_20.opt.tour
NAME : rnd8_20.tsp.tsp.optbc.tour
TYPE : TOUR
DIMENSION : 20
TOUR_SECTION
0
14
2
3
1
18
10
13
5
7
12
4
19
15
9
8
6
11
17
16
-1